Test: fpga12_11_sat.cnf
Options: -no-inverting-opt -activity-nl-freq=1
WARNING: for repeatability, setting FPU to use double precision
============================[ Problem Statistics ]=============================
|                                                                             |
|  Number of symmetries:           29                                         |
|  Number of invertingSyms:         0                                         |
|  Number of variables:           198                                         |
|  Number of clauses:             968                                         |
|  Parse time:                   0.00 s                                       |
|                                                                             |
============================[ Search Statistics ]==============================
| Conflicts |          ORIGINAL         |          LEARNT          | Progress |
|           |    Vars  Clauses Literals |    Limit  Clauses Lit/Cl |          |
===============================================================================
|       100 |     198      968     2640 |      354      241     46 |  0.003 % |
===============================================================================
restarts              : 2
conflicts             : 134            (33500 /sec)
symconflicts          : 58             (14500 /sec)
decisions             : 355            (0.00 % random) (88750 /sec)
propagations          : 2646           (661500 /sec)
sympropagations       : 191            (47750 /sec)
conflict literals     : 5439           (0.78 % deleted)
literals     : 5439           (0.78 % deleted)

HEURISTIC USAGES
random                : 0           
activity w/ lookahead : 0           
activity no lookahead : 354         
original sp           : 0           
sym count             : 0           

Memory used           : 5.00 MB
CPU time              : 0.004 s

SATISFIABLE
